This is Ipopt version 3.12.13, running with linear solver ma57.

Number of nonzeros in equality constraint Jacobian...:        0
Number of nonzeros in inequality constraint Jacobian.:    32544
Number of nonzeros in Lagrangian Hessian.............:       21

Total number of variables............................:        6
                     variables with only lower bounds:        0
                variables with lower and upper bounds:        6
                     variables with only upper bounds:        0
Total number of equality constraints.................:        0
Total number of inequality constraints...............:     5424
        inequality constraints with only lower bounds:        0
   inequality constraints with lower and upper bounds:        0
        inequality constraints with only upper bounds:     5424

iter    objective    inf_pr   inf_du lg(mu)  ||d||  lg(rg) alpha_du alpha_pr  ls
   0  4.7189652e-02 0.00e+00 6.25e+00   0.0 0.00e+00    -  0.00e+00 0.00e+00   0
   1  4.7156938e-02 0.00e+00 2.53e-02  -5.6 4.84e-04    -  9.75e-01 1.00e+00f  1
   2  4.6212655e-02 0.00e+00 1.56e-02  -7.2 1.65e-02    -  3.87e-01 1.00e+00f  1
   3  4.2562627e-02 0.00e+00 1.35e-02  -3.5 4.14e-01    -  7.81e-01 4.70e-01h  1
   4  3.8149896e-02 0.00e+00 8.00e-03  -4.2 1.43e-01    -  4.96e-01 8.92e-01h  1
   5  3.7107410e-02 0.00e+00 1.19e-03  -4.5 8.83e-02    -  8.65e-01 8.82e-01h  1
   6  3.6735240e-02 0.00e+00 1.35e-04  -4.9 5.79e-02    -  9.90e-01 1.00e+00h  1
   7  3.6660942e-02 0.00e+00 6.33e-07  -5.0 1.76e-02    -  1.00e+00 1.00e+00h  1
   8  3.6328395e-02 0.00e+00 7.96e-05  -6.7 9.19e-02    -  9.38e-01 1.00e+00h  1
   9  3.6284731e-02 0.00e+00 1.26e-07  -7.5 3.81e-02    -  1.00e+00 1.00e+00h  1

Number of Iterations....: 9

                                   (scaled)                 (unscaled)
Objective...............:   3.6284730718509683e-02    3.6284730718509683e-02
Dual infeasibility......:   1.2623865385251842e-07    1.2623865385251842e-07
Constraint violation....:   0.0000000000000000e+00    0.0000000000000000e+00
Complementarity.........:   6.6898284841250992e-07    6.6898284841250992e-07
Overall NLP error.......:   6.6898284841250992e-07    6.6898284841250992e-07


Number of objective function evaluations             = 10
Number of objective gradient evaluations             = 10
Number of equality constraint evaluations            = 0
Number of inequality constraint evaluations          = 10
Number of equality constraint Jacobian evaluations   = 0
Number of inequality constraint Jacobian evaluations = 10
Number of Lagrangian Hessian evaluations             = 9
Total CPU secs in IPOPT (w/o function evaluations)   =      0.047
Total CPU secs in NLP function evaluations           =      0.020

EXIT: Optimal Solution Found.
